(set-logic QF_S)
(declare-fun T_SELECT_17 () Bool)
(declare-fun T_c1 () Bool)
(declare-fun T_c2 () Bool)
(declare-fun I0_287 () Int)
(declare-fun I0_291 () Int)
(declare-fun I1_287 () Int)
(declare-fun I1_291 () Int)
(declare-fun I2_287 () Int)
(declare-fun I2_291 () Int)
(declare-fun PCTEMP_LHS_75 () Int)
(declare-fun T_c6 () Int)
(declare-fun NEW_DGNode_738 () String)
(declare-fun NEW_DGNode_739 () String)
(declare-fun PCTEMP_LHS_79 () String)
(assert (= PCTEMP_LHS_79 NEW_DGNode_739))
(assert (= NEW_DGNode_739 NEW_DGNode_738))
(assert (not (str.in.re NEW_DGNode_739 (str.to.re "+"))))
(assert (not (str.in.re NEW_DGNode_738 (str.to.re "%"))))
(assert (= T_SELECT_17 (not (= PCTEMP_LHS_75 (- 1)))))
(assert T_c2)
(assert (= T_c2 (not T_c1)))
(assert (= T_c1 (= PCTEMP_LHS_75 (- 1))))
(assert (= I0_287 (- PCTEMP_LHS_75 0)))
(assert (>= PCTEMP_LHS_75 0))
(assert (= I2_287 I1_287))
(assert (<= PCTEMP_LHS_75 I1_287))
(assert (= T_c6 (+ PCTEMP_LHS_75 1)))
(assert (>= T_c6 0))
(assert (>= I2_291 T_c6))
(assert (= I2_291 I1_291))
(assert (<= I2_291 I1_291))
(assert (= I0_291 (- I2_291 T_c6)))
(assert (= I0_291 (str.len PCTEMP_LHS_79))) ; len 0
(check-sat)
